p cnf 1244 2364
-57 0
-71 0
-72 0
-97 0
-99 0
-206 0
-207 0
-270 0
-271 0
-962 0
-963 0
-964 0
-965 0
-968 0
-969 0
-966 0
-967 0
-970 0
-971 0
-972 0
-973 0
-974 0
-1175 0
1 -2 0
1 -13 0
1 -20 0
1 -22 0
1 -26 0
1 -38 0
1 -55 0
1 -56 0
1 -58 0
1 -59 0
1 -61 0
-1 2 0
-1 13 0
-1 20 0
-1 22 0
-1 26 0
-1 38 0
-1 59 0
2 -3 0
2 -4 0
2 -5 0
2 -6 0
2 -7 0
2 -8 0
2 -9 0
2 -11 0
9 -10 0
-9 10 0
11 -12 0
-11 12 0
13 -14 0
13 -15 0
13 -16 0
13 -17 0
13 -18 0
13 -19 0
-13 15 0
20 -21 0
22 -23 0
22 -25 0
23 -24 0
-23 24 0
26 -27 0
26 -28 0
26 -29 0
26 -30 0
26 -31 0
26 -32 0
26 -33 0
26 -34 0
26 -35 0
26 -36 0
26 -37 0
-26 34 0
-26 35 0
-26 36 0
38 -39 0
38 -40 0
38 -41 0
38 -53 0
38 -54 0
41 -42 0
41 -43 0
41 -44 0
41 -45 0
41 -46 0
41 -47 0
41 -48 0
41 -49 0
41 -50 0
41 -51 0
41 -52 0
59 -60 0
61 -62 0
61 -64 0
61 -66 0
61 -69 0
61 -70 0
61 -73 0
61 -74 0
61 -91 0
-61 69 0
62 -63 0
-62 63 0
64 -65 0
66 -67 0
66 -68 0
74 -75 0
74 -78 0
74 -79 0
74 -80 0
74 -81 0
74 -82 0
74 -83 0
74 -84 0
74 -85 0
74 -86 0
74 -87 0
74 -88 0
-74 75 0
-74 78 0
-74 80 0
-74 81 0
-74 82 0
-74 83 0
-74 84 0
-74 85 0
-74 88 0
-75 76 0
-75 77 0
88 -89 0
88 -90 0
-88 89 0
-88 90 0
91 -92 0
91 -96 0
91 -98 0
91 -100 0
-91 92 0
92 -93 0
92 -94 0
92 -95 0
-92 93 0
-92 94 0
-92 95 0
101 -102 0
101 -103 0
101 -190 0
101 -223 0
101 -233 0
103 -104 0
-103 104 0
105 -106 0
105 -107 0
105 -108 0
105 -109 0
105 -110 0
105 -119 0
105 -131 0
105 -143 0
105 -174 0
105 -175 0
105 -179 0
105 -180 0
-105 175 0
110 -111 0
110 -114 0
110 -115 0
110 -116 0
110 -117 0
110 -118 0
-110 116 0
-110 117 0
-110 118 0
111 -112 0
111 -113 0
-111 112 0
-111 113 0
119 -120 0
119 -121 0
119 -122 0
119 -123 0
119 -125 0
119 -127 0
119 -129 0
-119 121 0
123 -124 0
-123 124 0
125 -126 0
-125 126 0
127 -128 0
-127 128 0
129 -130 0
-129 130 0
131 -132 0
131 -133 0
131 -134 0
131 -136 0
131 -138 0
131 -140 0
131 -142 0
134 -135 0
-134 135 0
136 -137 0
-136 137 0
138 -139 0
-138 139 0
140 -141 0
-140 141 0
143 -144 0
143 -153 0
144 -145 0
144 -146 0
144 -147 0
144 -150 0
-144 150 0
147 -148 0
147 -149 0
-147 148 0
-147 149 0
150 -151 0
150 -152 0
-150 151 0
-150 152 0
153 -154 0
153 -155 0
153 -162 0
153 -169 0
153 -172 0
-153 169 0
155 -156 0
155 -157 0
155 -158 0
155 -159 0
155 -160 0
155 -161 0
-155 156 0
-155 157 0
-155 158 0
-155 159 0
-155 160 0
-155 161 0
162 -163 0
162 -164 0
162 -165 0
162 -166 0
162 -167 0
162 -168 0
-162 163 0
-162 164 0
-162 165 0
-162 166 0
-162 167 0
-162 168 0
169 -170 0
169 -171 0
-169 170 0
-169 171 0
172 -173 0
-172 173 0
175 -176 0
175 -177 0
175 -178 0
-175 176 0
-175 177 0
-175 178 0
180 -181 0
180 -182 0
180 -183 0
180 -184 0
180 -185 0
180 -186 0
180 -187 0
180 -188 0
180 -189 0
190 -191 0
190 -192 0
190 -193 0
190 -195 0
190 -196 0
190 -203 0
190 -208 0
190 -209 0
-190 195 0
-190 209 0
193 -194 0
-193 194 0
196 -197 0
196 -198 0
198 -199 0
198 -200 0
198 -201 0
198 -202 0
203 -204 0
203 -205 0
-203 205 0
209 -210 0
-209 210 0
211 -212 0
211 -213 0
-211 212 0
-211 213 0
213 -214 0
-213 214 0
215 -216 0
215 -217 0
217 -218 0
217 -219 0
217 -220 0
217 -221 0
-217 218 0
-217 219 0
-217 220 0
221 -222 0
-221 222 0
223 -224 0
223 -225 0
223 -226 0
223 -229 0
-223 229 0
226 -227 0
226 -228 0
-226 227 0
-226 228 0
229 -230 0
229 -231 0
229 -232 0
-229 230 0
-229 231 0
-229 232 0
233 -234 0
-233 234 0
234 -235 0
234 -236 0
234 -237 0
234 -238 0
234 -239 0
-234 235 0
-234 236 0
-234 238 0
240 -241 0
240 -261 0
240 -263 0
240 -264 0
240 -265 0
240 -266 0
240 -267 0
240 -268 0
240 -269 0
240 -272 0
-240 261 0
-241 266 0
-240 272 0
241 -242 0
241 -247 0
241 -250 0
241 -251 0
241 -252 0
241 -253 0
241 -254 0
241 -260 0
242 -243 0
242 -244 0
242 -245 0
242 -246 0
247 -248 0
247 -249 0
254 -255 0
254 -256 0
254 -257 0
254 -258 0
254 -259 0
-247 -254 255 0
261 -262 0
272 -273 0
272 -274 0
272 -275 0
272 -276 0
272 -277 0
-272 273 0
-272 274 0
-272 275 0
-272 276 0
-272 277 0
277 -278 0
-277 278 0
279 -280 0
279 -288 0
279 -291 0
279 -307 0
279 -308 0
279 -320 0
279 -344 0
279 -359 0
279 -379 0
279 -381 0
279 -383 0
-279 280 0
-279 291 0
-279 308 0
-279 320 0
-279 344 0
-279 379 0
-279 381 0
-279 383 0
280 -281 0
281 -282 0
281 -283 0
281 -285 0
281 -287 0
283 -284 0
285 -286 0
-285 286 0
288 -289 0
288 -290 0
291 -292 0
291 -293 0
291 -294 0
291 -296 0
291 -297 0
291 -298 0
291 -301 0
291 -304 0
-291 297 0
-291 298 0
294 -295 0
298 -299 0
298 -300 0
-298 299 0
301 -302 0
301 -303 0
-301 302 0
304 -305 0
304 -306 0
308 -309 0
308 -310 0
308 -311 0
308 -312 0
308 -313 0
308 -315 0
308 -316 0
308 -317 0
308 -318 0
308 -319 0
-309 310 0
-308 318 0
-308 319 0
313 -314 0
-313 314 0
320 -321 0
320 -322 0
320 -323 0
320 -324 0
320 -325 0
320 -328 0
320 -330 0
320 -337 0
320 -340 0
320 -341 0
320 -342 0
320 -343 0
-320 340 0
-320 341 0
-320 342 0
325 -326 0
325 -327 0
-325 327 0
328 -329 0
330 -331 0
330 -332 0
-330 331 0
-330 332 0
332 -333 0
332 -334 0
332 -335 0
332 -336 0
-332 333 0
-332 334 0
-332 335 0
-332 336 0
337 -338 0
337 -339 0
-337 338 0
344 -345 0
344 -353 0
344 -354 0
344 -355 0
344 -356 0
344 -357 0
344 -358 0
-344 355 0
345 -346 0
345 -347 0
345 -349 0
345 -350 0
345 -351 0
345 -352 0
-345 350 0
-347 348 0
359 -360 0
359 -361 0
359 -362 0
359 -363 0
359 -364 0
359 -365 0
359 -366 0
359 -367 0
359 -368 0
359 -369 0
359 -370 0
359 -371 0
359 -372 0
359 -373 0
359 -374 0
359 -375 0
359 -376 0
-359 361 0
376 -377 0
376 -378 0
379 -380 0
381 -382 0
383 -384 0
383 -385 0
383 -386 0
-383 384 0
-383 385 0
-383 386 0
387 -388 0
387 -402 0
387 -403 0
387 -404 0
387 -405 0
387 -412 0
387 -413 0
-387 388 0
-387 412 0
-387 413 0
388 -389 0
388 -391 0
388 -394 0
388 -400 0
-388 389 0
-388 391 0
-388 394 0
-388 400 0
389 -390 0
391 -392 0
391 -393 0
394 -395 0
394 -396 0
394 -397 0
394 -398 0
394 -399 0
-394 399 0
400 -401 0
405 -406 0
405 -407 0
405 -408 0
405 -409 0
405 -410 0
405 -411 0
-405 409 0
413 -414 0
413 -415 0
413 -416 0
-413 414 0
-413 415 0
-413 416 0
417 -418 0
417 -421 0
417 -424 0
417 -429 0
417 -432 0
417 -453 0
417 -481 0
417 -496 0
417 -515 0
417 -521 0
417 -526 0
417 -527 0
417 -533 0
417 -534 0
417 -535 0
417 -536 0
417 -544 0
417 -547 0
417 -549 0
417 -552 0
417 -555 0
417 -560 0
417 -565 0
417 -572 0
417 -575 0
417 -578 0
417 -583 0
417 -588 0
417 -595 0
-417 418 0
-417 421 0
-417 424 0
-417 429 0
-417 432 0
-417 453 0
-417 481 0
-417 496 0
-417 515 0
-417 521 0
-417 527 0
-417 536 0
-417 544 0
-417 547 0
-417 549 0
-417 552 0
-417 555 0
-417 560 0
-417 565 0
-417 572 0
-417 575 0
-417 578 0
-417 583 0
-417 588 0
-417 595 0
418 -419 0
418 -420 0
421 -422 0
421 -423 0
424 -425 0
424 -426 0
424 -427 0
424 -428 0
429 -430 0
429 -431 0
432 -433 0
432 -434 0
432 -435 0
432 -436 0
432 -437 0
432 -438 0
432 -439 0
432 -440 0
432 -441 0
432 -442 0
432 -443 0
432 -444 0
432 -445 0
432 -446 0
432 -447 0
432 -448 0
432 -449 0
432 -450 0
432 -451 0
432 -452 0
453 -454 0
453 -455 0
453 -456 0
453 -457 0
453 -458 0
453 -459 0
453 -460 0
453 -461 0
453 -462 0
453 -463 0
453 -464 0
453 -465 0
453 -466 0
453 -467 0
453 -468 0
453 -469 0
453 -470 0
453 -471 0
453 -472 0
453 -473 0
453 -474 0
453 -475 0
453 -476 0
453 -477 0
453 -478 0
453 -479 0
453 -480 0
481 -482 0
481 -483 0
481 -484 0
481 -485 0
481 -486 0
481 -487 0
481 -488 0
481 -489 0
481 -490 0
481 -491 0
481 -492 0
481 -493 0
481 -494 0
481 -495 0
496 -497 0
496 -498 0
496 -499 0
496 -500 0
496 -501 0
496 -502 0
496 -503 0
496 -504 0
496 -505 0
496 -506 0
496 -507 0
496 -508 0
496 -509 0
496 -510 0
496 -511 0
496 -512 0
496 -513 0
496 -514 0
515 -516 0
515 -517 0
515 -518 0
515 -519 0
515 -520 0
521 -522 0
521 -523 0
521 -524 0
521 -525 0
527 -528 0
527 -529 0
527 -530 0
527 -531 0
527 -532 0
536 -537 0
536 -538 0
536 -539 0
536 -540 0
536 -541 0
536 -542 0
536 -543 0
544 -545 0
544 -546 0
547 -548 0
549 -550 0
549 -551 0
552 -553 0
552 -554 0
555 -556 0
555 -557 0
555 -558 0
555 -559 0
560 -561 0
560 -562 0
560 -563 0
560 -564 0
565 -566 0
565 -567 0
565 -568 0
565 -569 0
565 -570 0
565 -571 0
572 -573 0
572 -574 0
575 -576 0
575 -577 0
578 -579 0
578 -580 0
578 -581 0
578 -582 0
583 -584 0
583 -585 0
583 -586 0
583 -587 0
588 -589 0
588 -590 0
588 -591 0
588 -592 0
588 -593 0
588 -594 0
595 -596 0
595 -597 0
-595 596 0
-595 597 0
598 -599 0
598 -613 0
598 -618 0
598 -640 0
598 -665 0
598 -685 0
598 -697 0
599 -600 0
599 -605 0
599 -606 0
599 -607 0
599 -608 0
599 -609 0
-599 600 0
-599 607 0
-599 609 0
600 -601 0
600 -602 0
600 -603 0
600 -604 0
609 -610 0
609 -611 0
609 -612 0
-609 610 0
-609 611 0
-609 612 0
613 -614 0
-613 614 0
614 -615 0
614 -616 0
614 -617 0
-614 615 0
-614 616 0
-614 617 0
618 -619 0
618 -620 0
618 -621 0
618 -628 0
618 -629 0
618 -630 0
618 -632 0
618 -633 0
618 -634 0
618 -635 0
618 -636 0
-618 620 0
-618 621 0
-618 628 629 0
-618 634 0
-618 636 0
621 -622 0
621 -623 0
621 -624 0
621 -627 0
624 -625 0
624 -626 0
-624 626 0
630 -631 0
-630 631 0
636 -637 0
636 -638 0
636 -639 0
-636 637 0
-636 638 0
-636 639 0
640 -641 0
640 -642 0
640 -643 0
640 -644 0
640 -645 0
640 -646 0
640 -650 0
640 -651 0
640 -652 0
640 -654 0
640 -655 0
640 -658 0
640 -659 0
640 -660 0
640 -661 0
-640 642 0
-640 643 0
-640 644 0
-640 645 0
-640 650 0
-640 654 0
-640 655 0
-640 661 0
646 -647 0
646 -648 0
646 -649 0
-646 647 0
652 -653 0
655 -656 0
655 -657 0
661 -662 0
661 -663 0
661 -664 0
-661 662 0
-661 663 0
-661 664 0
665 -666 0
665 -670 0
665 -677 0
665 -678 0
665 -679 0
665 -680 0
665 -681 0
-665 666 0
-665 670 0
-665 679 0
-665 680 0
-665 681 0
666 -667 0
666 -668 0
666 -669 0
670 -671 0
670 -672 0
670 -673 0
670 -674 0
670 -675 0
670 -676 0
-670 672 0
-670 673 0
681 -682 0
681 -683 0
681 -684 0
-681 682 0
-681 683 0
-681 684 0
685 -686 0
685 -687 0
685 -688 0
685 -689 0
685 -692 0
685 -693 0
-685 689 0
-685 693 0
689 -690 0
689 -691 0
-689 691 0
693 -694 0
693 -695 0
693 -696 0
-693 694 0
-693 695 0
-693 696 0
697 -698 0
697 -699 0
697 -700 0
697 -701 0
697 -702 0
697 -703 0
697 -707 0
697 -718 0
697 -719 0
-697 703 0
-697 707 0
-697 718 0
-697 719 0
703 -704 0
703 -705 0
703 -706 0
-703 704 0
-703 705 0
-703 706 0
707 -708 0
707 -709 0
707 -710 0
707 -711 0
707 -712 0
707 -713 0
707 -714 0
707 -715 0
707 -716 0
707 -717 0
719 -720 0
719 -721 0
719 -722 0
-719 720 0
-719 721 0
-719 722 0
723 -724 0
723 -732 0
723 -735 0
723 -738 0
723 -739 0
-723 724 0
-723 732 0
-723 738 0
-723 739 0
724 -725 0
724 -726 0
724 -727 0
724 -729 0
724 -730 0
724 -731 0
727 -728 0
-727 728 0
732 -733 0
732 -734 0
735 -736 0
735 -737 0
-733 -735 736 0
-734 -735 737 0
739 -740 0
739 -741 0
739 -742 0
-739 740 0
-739 741 0
-739 742 0
743 -744 0
743 -747 0
743 -749 0
743 -763 0
743 -764 0
743 -765 0
743 -766 0
743 -770 0
743 -771 0
743 -774 0
-743 774 0
744 -745 0
744 -746 0
747 -748 0
749 -750 0
749 -751 0
749 -755 0
749 -761 0
751 -752 0
751 -753 0
751 -754 0
-751 752 0
-751 753 0
-751 754 0
755 -756 0
755 -757 0
755 -758 0
755 -759 0
755 -760 0
761 -762 0
-761 762 0
766 -767 0
766 -768 0
766 -769 0
-766 767 0
771 -772 0
771 -773 0
-771 772 0
-771 773 0
775 -776 0
775 -777 0
775 -778 0
775 -779 0
775 -780 0
775 -781 0
775 -782 0
775 -783 0
775 -789 0
775 -793 0
775 -797 0
775 -805 0
775 -811 0
775 -817 0
775 -818 0
775 -820 0
775 -822 0
775 -825 0
775 -837 0
-775 797 0
-775 822 0
-775 825 0
-775 837 0
783 -784 0
783 -785 0
783 -787 0
-783 784 0
785 -786 0
-785 786 0
787 -788 0
-787 788 0
789 -790 0
789 -791 0
-789 790 0
791 -792 0
-791 792 0
793 -794 0
793 -795 0
-793 794 0
795 -796 0
-795 796 0
797 -798 0
797 -799 0
797 -800 0
797 -802 0
797 -803 0
797 -804 0
-797 798 0
-797 799 0
-797 802 0
-797 803 0
-797 804 0
800 -801 0
-800 801 0
805 -806 0
805 -807 0
805 -809 0
805 -810 0
-805 806 0
-805 809 0
-805 810 0
807 -808 0
-807 808 0
811 -812 0
811 -813 0
811 -815 0
811 -816 0
-811 812 0
-811 815 0
-811 816 0
813 -814 0
-813 814 0
818 -819 0
-818 819 0
820 -821 0
-820 821 0
822 -823 0
822 -824 0
-822 824 0
825 -826 0
825 -827 0
825 -828 0
825 -829 0
825 -830 0
825 -835 0
825 -836 0
-825 826 0
-825 827 0
-825 828 0
-825 829 0
-825 830 0
-825 835 0
-825 836 0
830 -831 0
830 -832 0
830 -833 0
830 -834 0
-830 831 0
-830 832 0
-830 833 0
-830 834 0
837 -838 0
837 -839 0
837 -840 0
-837 838 0
-837 839 0
-837 840 0
841 -842 0
841 -843 0
841 -844 0
841 -847 0
841 -848 0
841 -849 0
841 -850 0
-841 844 0
-841 850 0
844 -845 0
844 -846 0
850 -851 0
850 -852 0
850 -853 0
-850 851 0
-850 852 0
-850 853 0
854 -855 0
854 -856 0
854 -857 0
854 -858 0
854 -859 0
854 -860 0
854 -864 0
-854 858 0
-854 860 0
-854 864 0
860 -861 0
860 -862 0
860 -863 0
864 -865 0
864 -866 0
864 -867 0
-864 865 0
-864 866 0
-864 867 0
868 -869 0
-868 869 0
869 -870 0
869 -871 0
-869 870 0
-869 871 0
872 -873 0
872 -874 0
-872 873 0
-872 874 0
875 -876 0
875 -879 0
875 -880 0
-875 880 0
876 -877 0
876 -878 0
-876 878 0
880 -881 0
880 -882 0
-880 881 0
-880 882 0
883 -884 0
883 -885 0
883 -886 0
883 -887 0
883 -888 0
883 -889 0
883 -890 0
883 -891 0
883 -892 0
883 -893 0
883 -894 0
883 -895 0
883 -897 0
883 -898 0
883 -899 0
883 -900 0
883 -901 0
-883 888 0
-883 889 0
-883 890 0
-883 891 0
-883 892 0
-883 893 0
-883 897 0
-883 901 0
895 -896 0
-895 896 0
902 -903 0
902 -904 0
902 -905 0
902 -906 0
902 -907 0
902 -908 0
902 -913 0
902 -921 0
902 -932 0
902 -936 0
902 -938 0
902 -939 0
902 -940 0
902 -943 0
902 -947 0
902 -948 0
902 -961 0
902 -975 0
-902 940 0
-902 943 0
-217 -902 948 0
908 -909 0
908 -910 0
908 -911 0
908 -912 0
913 -914 0
913 -915 0
913 -917 0
913 -918 0
913 -920 0
-913 914 0
-913 917 0
915 -916 0
-915 916 0
918 -919 0
-918 919 0
921 -922 0
921 -923 0
921 -924 0
921 -925 0
921 -926 0
921 -927 0
921 -928 0
921 -930 0
921 -931 0
-922 923 0
-922 924 0
-921 925 0
-921 931 0
-928 929 0
932 -933 0
933 -934 0
933 -935 0
-933 934 0
-933 935 0
936 -937 0
940 -941 0
940 -942 0
-940 941 0
-940 942 0
943 -944 0
943 -945 0
943 -946 0
-943 945 0
948 -949 0
948 -950 0
948 -951 0
948 -954 0
948 -955 0
951 -952 0
951 -953 0
955 -956 0
955 -957 0
955 -958 0
955 -959 0
955 -960 0
-955 956 0
-955 957 0
-955 958 0
-955 959 0
-955 960 0
975 -976 0
975 -977 0
975 -983 0
975 -984 0
975 -985 0
975 -986 0
975 -987 0
975 -988 0
975 -989 0
975 -990 0
975 -991 0
975 -992 0
975 -993 0
975 -996 0
975 -999 0
975 -1001 0
975 -1005 0
-975 983 0
-975 984 0
-975 987 0
-975 988 0
-975 989 0
-975 990 0
-975 991 0
-975 992 0
-975 993 0
-975 996 0
-975 1001 0
-975 1005 0
977 -978 0
977 -979 0
977 -980 0
977 -981 0
977 -982 0
993 -994 0
993 -995 0
-993 994 0
-993 995 0
996 -997 0
996 -998 0
-996 997 0
-996 998 0
999 -1000 0
-999 1000 0
1001 -1002 0
1001 -1003 0
1001 -1004 0
-1001 1003 0
-1001 1004 0
1006 -1007 0
1006 -1012 0
-1006 1007 0
-1006 1012 0
1007 -1008 0
1007 -1009 0
1007 -1010 0
1007 -1011 0
-1007 1008 0
-1007 1009 0
-1007 1010 0
-1007 1011 0
1012 -1013 0
1012 -1014 0
1012 -1015 0
1012 -1016 0
-1012 1013 0
-1012 1014 0
-1012 1016 0
1016 -1017 0
1016 -1018 0
1016 -1019 0
-1016 1019 0
1020 -1021 0
1020 -1022 0
1020 -1024 0
-1020 1024 0
1022 -1023 0
1024 -1025 0
1024 -1026 0
-1024 1025 0
-1024 1026 0
1027 -1028 0
1027 -1029 0
1027 -1030 0
1027 -1031 0
1027 -1032 0
1027 -1033 0
1027 -1034 0
1027 -1035 0
1027 -1036 0
1027 -1037 0
1027 -1038 0
-1027 1028 0
-1027 1029 0
-1027 1030 0
-1027 1031 0
-1027 1032 0
-1027 1033 0
-1027 1035 0
-1027 1037 0
-1027 1038 0
1038 -1039 0
1038 -1040 0
-1038 1039 0
-1038 1040 0
1041 -1042 0
1041 -1043 0
1041 -1046 0
-1041 1042 0
-1041 1043 0
-1041 1046 0
1043 -1044 0
1043 -1045 0
-1043 1044 0
-1043 1045 0
1047 -1048 0
1047 -1049 0
1047 -1050 0
1047 -1053 0
1047 -1054 0
1047 -1055 0
1047 -1056 0
1047 -1060 0
1047 -1064 0
1047 -1066 0
1047 -1069 0
1047 -1072 0
1047 -1073 0
1047 -1074 0
1047 -1075 0
1047 -1077 0
-1047 1048 0
-1047 1050 0
-1047 1053 0
-1047 1064 0
-1047 1066 0
-1047 1069 0
-1047 1072 0
-1047 1074 0
1050 -1051 0
1050 -1052 0
-1050 1051 0
-1050 1052 0
1056 -1057 0
1056 -1058 0
1056 -1059 0
1060 -1061 0
1060 -1062 0
1060 -1063 0
-1060 1061 0
-1060 1062 0
-1060 1063 0
1064 -1065 0
1066 -1067 0
1066 -1068 0
1069 -1070 0
1069 -1071 0
-1069 1070 0
-1069 1071 0
1075 -1076 0
-1075 1076 0
1078 -1079 0
1078 -1080 0
1078 -1082 0
1078 -1084 0
1078 -1085 0
1078 -1086 0
1078 -1089 0
1078 -1090 0
1078 -1091 0
-1078 1084 0
-909 -1078 1085 0
-1078 1086 0
-1079 1089 0
1080 -1081 0
-1080 1081 0
1082 -1083 0
-1082 1083 0
1086 -1087 0
1086 -1088 0
-1086 1087 0
-1086 1088 0
1092 -1093 0
-1092 1093 0
1094 -1095 0
-1094 1095 0
1096 -1097 0
1096 -1099 0
1096 -1102 0
-1096 1099 0
-1096 1102 0
1097 -1098 0
1099 -1100 0
1099 -1101 0
-1099 1100 0
-1099 1101 0
1103 -1104 0
1103 -1105 0
1103 -1106 0
1103 -1107 0
1103 -1108 0
1103 -1109 0
1103 -1110 0
1103 -1111 0
1103 -1112 0
1103 -1113 0
1103 -1118 0
1103 -1119 0
1103 -1142 0
-1103 1142 0
1113 -1114 0
1113 -1115 0
1113 -1116 0
1113 -1117 0
-1113 1115 0
1119 -1120 0
1119 -1131 0
1120 -1121 0
1120 -1122 0
1120 -1123 0
1120 -1126 0
1120 -1129 0
-1120 1121 0
1123 -1124 0
1123 -1125 0
-1123 1124 0
-1123 1125 0
1126 -1127 0
1126 -1128 0
-1126 1127 0
1129 -1130 0
-1129 1130 0
1131 -1132 0
1131 -1133 0
1131 -1134 0
1131 -1137 0
1131 -1140 0
-1131 1132 0
1134 -1135 0
1134 -1136 0
-1134 1135 0
-1134 1136 0
1137 -1138 0
1137 -1139 0
-1137 1138 0
1140 -1141 0
-1140 1141 0
1142 -1143 0
1142 -1144 0
1142 -1145 0
-1142 1143 0
-1142 1144 0
-1142 1145 0
1145 -1146 0
1145 -1147 0
-1145 1146 0
-1145 1147 0
1148 -1149 0
1148 -1150 0
1148 -1152 0
1148 -1161 0
1148 -1162 0
1148 -1163 0
-1148 1161 0
-1148 1163 0
1150 -1151 0
-1150 1151 0
1152 -1153 0
1152 -1154 0
1152 -1155 0
1152 -1156 0
1152 -1157 0
-1152 1153 0
-1152 1154 0
-1152 1155 0
-1152 1156 0
1157 -1158 0
1157 -1159 0
1157 -1160 0
-1158 1159 0
-1157 1160 0
1164 -1165 0
1164 -1166 0
1164 -1167 0
1167 -1168 0
-1167 1168 0
1169 -1170 0
1169 -1174 0
1169 -1176 0
1169 -1177 0
1169 -1182 0
1169 -1183 0
1169 -1184 0
1169 -1185 0
1169 -1186 0
-1169 1176 0
-1169 1182 0
-1169 1183 0
-1169 1184 0
-1169 1186 0
1170 -1171 0
1170 -1172 0
1170 -1173 0
-1170 1171 0
-1170 1172 0
-1170 1173 0
1177 -1178 0
1177 -1179 0
1177 -1181 0
-1177 1181 0
1187 -1188 0
-1187 1188 0
1189 -1190 0
1189 -1191 0
1189 -1192 0
1189 -1193 0
1189 -1194 0
1189 -1199 0
-1189 1194 0
-1189 1199 0
1194 -1195 0
1194 -1196 0
1194 -1197 0
1194 -1198 0
-1194 1195 0
-1194 1196 0
-1194 1197 0
-1194 1198 0
1200 -1201 0
1200 -1202 0
1200 -1203 0
1200 -1204 0
1200 -1205 0
1200 -1208 0
1200 -1219 0
1200 -1222 0
1200 -1225 0
-1200 1201 0
-1200 1202 0
-1200 1203 0
-1200 1204 0
-1200 1205 0
-1200 1208 0
-1200 1225 0
1205 -1206 0
1206 -1207 0
1208 -1209 0
1208 -1210 0
1208 -1211 0
1208 -1212 0
1208 -1213 0
1208 -1214 0
1208 -1215 0
1208 -1216 0
1208 -1217 0
1208 -1218 0
-1208 1209 0
-1208 1210 0
-1208 1211 0
1219 -1220 0
1219 -1221 0
-1219 1220 0
-1219 1221 0
1222 -1223 0
1222 -1224 0
-1222 1223 0
-1222 1224 0
1226 -1227 0
1226 -1228 0
1226 -1229 0
-1226 1229 0
1229 -1230 0
1229 -1231 0
-1229 1230 0
-1229 1231 0
1232 -1233 0
1234 -1235 0
1234 -1236 0
1234 -1237 0
1234 -1238 0
1234 -1239 0
1234 -1240 0
1234 -1241 0
1234 -1244 0
-1234 1235 0
-1234 1236 0
-1234 1237 0
-1234 1244 0
1241 -1242 0
1241 -1243 0
-1241 1242 0
-1241 1243 0
-1 240 0
-3 279 0
-4 288 0
-5 635 0
6 -7 0
7 -8 0
-9 52 0
-9 -42 0
-28 51 -52 0
-21 -28 0
-17 -28 0
-28 -54 0
27 -28 0
28 -30 0
29 -30 0
-30 -32 0
-31 -32 0
28 -32 54 0
-33 53 380 0
28 -37 0
39 -41 0
-42 54 0
-45 51 0
-45 50 0
-45 49 0
-45 47 0
-45 -46 0
-53 -65 0
-53 78 0
-54 78 0
-62 -65 0
75 -76 0
75 -77 0
78 -87 0
62 -98 0
-101 875 0
-103 -883 0
-105 875 0
101 -105 0
108 -109 0
-110 111 114 0
109 -114 0
-114 115 0
-131 460 0
-131 427 0
-131 425 0
-131 883 0
-131 417 0
132 -133 0
-142 518 0
-142 516 0
-144 875 0
-144 154 0
105 -144 0
-153 875 0
91 -153 0
105 -153 0
155 -172 0
-179 885 0
-179 883 0
-196 494 0
-196 902 0
-203 492 0
-203 -902 0
-211 216 0
190 -211 0
190 -215 0
-226 279 0
-242 250 0
-242 251 252 253 254 0
-242 -251 -254 0
-242 -251 -252 0
-242 -252 -254 0
-242 -251 -253 0
-242 -252 -253 0
-242 -253 -254 0
-247 250 0
-247 251 252 253 254 0
-247 -251 -254 0
-247 -251 -252 0
-247 -252 -254 0
-247 -251 -253 0
-247 -252 -253 0
-247 -253 -254 0
247 -255 0
247 -256 0
247 -257 0
247 -258 0
247 -259 0
-262 775 0
241 -266 0
-267 -464 0
-269 -494 0
-282 283 285 0
-282 -283 -285 0
18 -287 0
4 -288 0
-292 294 296 0
-292 -294 -296 0
-253 -295 0
-252 -295 0
247 -295 0
-296 -307 0
-301 309 0
-296 -301 0
62 -307 0
281 -309 0
309 -310 0
-311 312 313 0
-311 -312 -313 0
309 -316 0
316 -317 0
309 -321 0
242 -325 0
241 -325 0
323 -326 0
324 -330 0
298 -343 0
-293 -345 0
294 -345 0
347 -348 0
321 -356 0
291 -364 0
320 -365 0
280 -366 0
344 -367 0
344 -368 0
344 -369 0
344 -370 0
344 -371 0
309 -372 0
309 -373 0
309 -374 0
33 -380 0
323 -380 0
279 -390 0
279 -392 0
242 -395 0
279 -396 0
-398 492 0
-398 417 0
279 -401 0
279 -402 0
-405 417 0
-408 410 411 0
-408 -410 -411 0
393 -410 0
409 -410 0
409 -411 0
-458 -674 -675 0
-458 -675 -676 0
-458 -674 -676 0
556 -558 0
556 -559 0
417 -599 0
478 -601 0
423 -605 0
330 -606 0
279 -606 0
423 -608 0
523 -613 0
417 -613 0
-618 622 0
-618 623 624 627 0
-618 -623 -627 0
-618 -623 -624 0
-618 -624 -627 0
417 -618 0
279 -624 0
619 -627 0
-628 -629 0
439 -632 0
279 -633 0
624 627 -635 0
624 -635 749 0
5 -635 0
454 -640 0
492 -640 0
494 -640 0
482 -640 0
427 -640 0
425 -640 0
417 -640 0
436 -640 0
450 -640 0
446 -640 0
444 -640 0
442 -640 0
438 -640 0
448 -640 0
440 -640 0
434 -640 0
599 -640 0
101 -640 0
648 -649 0
460 -649 0
460 -652 0
-653 660 0
-656 723 0
456 -657 0
-657 723 0
-658 678 0
279 -659 0
648 -660 0
646 -660 0
-660 883 0
494 -665 0
422 -665 0
417 -665 0
475 -667 0
477 -668 0
455 -669 0
330 -671 0
-677 723 0
417 -685 0
487 -685 0
495 -685 0
493 -685 0
489 -685 0
422 -688 0
491 -688 0
330 -690 0
279 -690 0
460 -692 0
474 -697 0
476 -697 0
417 -697 0
512 -697 0
506 -697 0
309 -698 0
321 -698 0
-699 854 0
-700 854 0
490 -701 0
701 -714 0
701 -715 0
701 -716 0
701 -717 0
-725 726 727 0
-725 -726 -727 0
598 -727 0
640 -731 0
-726 -731 0
330 -733 0
-726 -733 0
330 -734 0
247 -735 0
733 -736 0
734 -737 0
564 -743 0
540 -743 0
567 -743 0
300 -743 0
425 -743 0
427 -743 0
-743 875 0
417 -743 0
279 -743 0
346 -745 0
347 -746 0
-747 763 0
294 -748 0
562 -750 0
538 -750 0
324 -750 0
-306 -750 0
305 -750 0
304 -750 0
303 -750 0
747 -750 0
330 -756 0
301 -756 0
756 -757 0
294 -757 0
627 -761 0
618 -761 0
309 -763 0
279 -763 0
499 -763 0
510 -763 0
504 -763 0
509 -764 0
-764 770 0
749 -764 0
309 -764 0
279 -764 0
508 -764 0
502 -764 0
554 -765 0
763 -766 0
563 -766 0
494 -766 0
427 -766 0
460 -766 0
279 -766 0
-769 770 0
519 -770 0
517 -770 0
525 -770 0
764 -770 0
749 -770 0
288 -770 0
548 -771 0
279 -775 0
-776 777 778 0
-776 -777 -778 0
-353 -777 0
321 -777 0
-301 -777 0
294 -777 0
309 -777 0
387 -805 0
387 -811 0
309 -817 0
309 -818 0
309 -820 0
-841 845 846 0
-841 -845 -846 0
309 -845 0
-856 861 862 863 0
-856 -862 -863 0
-856 -861 -863 0
-856 -861 -862 0
279 -861 0
863 -868 0
854 -868 0
868 -872 0
74 -872 0
854 -872 0
426 -875 0
428 -876 0
330 -877 0
483 -879 0
570 -883 0
568 -883 0
535 -883 0
494 -883 0
425 -883 0
427 -883 0
875 -883 0
417 -883 0
279 -885 0
101 -886 0
279 -887 0
-887 902 0
460 -895 0
500 -899 0
-902 975 0
594 -902 0
592 -902 0
490 -902 0
460 -902 0
425 -902 0
427 -902 0
482 -902 0
505 -902 0
417 -902 0
101 -902 0
905 -908 0
192 -909 0
906 -909 0
907 -910 0
908 -913 0
441 -915 0
908 -921 0
191 -921 0
922 -923 0
922 -924 0
922 -926 0
922 -927 0
922 -928 0
928 -929 0
922 -930 0
909 -932 0
743 -933 0
-944 949 0
947 -948 0
217 -948 0
-949 950 951 955 0
-949 -951 -955 0
-949 -950 -955 0
-949 -950 -951 0
921 -952 0
909 -954 0
546 -975 0
883 -975 0
490 -975 0
460 -975 0
425 -975 0
427 -975 0
482 -975 0
505 -975 0
417 -975 0
101 -975 0
908 -977 0
909 -978 0
-979 1189 0
979 -980 0
909 -980 0
-1006 1020 0
902 -1006 0
425 -1006 0
427 -1006 0
460 -1006 0
441 -1006 0
454 -1006 0
494 -1006 0
101 -1006 0
1015 -1018 0
764 -1020 0
902 -1020 0
425 -1020 0
427 -1020 0
460 -1020 0
441 -1020 0
454 -1020 0
492 -1020 0
494 -1020 0
101 -1020 0
884 -1022 0
883 -1022 0
902 -1027 0
425 -1027 0
427 -1027 0
494 -1027 0
441 -1027 0
454 -1027 0
101 -1027 0
422 -1041 0
425 -1041 0
427 -1041 0
441 -1041 0
454 -1041 0
492 -1041 0
494 -1041 0
387 -1041 0
902 -1041 0
101 -1041 0
763 -1047 0
110 -1047 0
902 -1047 0
106 -1047 0
143 -1047 0
105 -1047 0
101 -1047 0
339 -1079 0
494 -1079 0
460 -1079 0
422 -1079 0
902 -1079 0
590 -1079 0
1079 -1080 0
1079 -1082 0
909 -1085 0
1079 -1089 0
-307 -1094 0
279 -1094 0
700 -1096 0
699 -1096 0
697 -1096 0
902 -1096 0
921 -1098 0
494 -1103 0
417 -1103 0
-1109 -1111 0
1108 -1109 0
-1113 1114 0
101 -1113 0
41 -1116 0
101 -1119 0
-1122 1123 1126 1129 0
-1122 -1123 -1126 0
-1122 -1126 -1129 0
-1122 -1123 -1129 0
1124 -1125 0
-1133 1134 1137 1140 0
-1133 -1134 -1137 0
-1133 -1137 -1140 0
-1133 -1134 -1140 0
1135 -1136 0
-1148 1150 1152 0
425 -1148 0
427 -1148 0
875 -1148 0
417 -1148 0
883 -1148 0
460 -1150 0
-1150 -1152 0
1158 -1159 0
900 -1162 0
425 -1164 0
427 -1164 0
417 -1164 0
883 -1164 0
900 -1166 0
1165 -1167 0
482 -1167 0
441 -1167 0
622 -1167 0
1092 -1169 0
-1169 1187 0
895 -1169 0
1113 -1169 0
425 -1169 0
427 -1169 0
875 -1169 0
417 -1169 0
460 -1169 0
1103 -1169 0
883 -1169 0
279 -1170 0
-1178 1189 0
1177 -1180 0
900 -1185 0
1092 -1189 0
417 -1189 0
387 -1192 0
-1190 -1192 0
439 -1193 0
441 -1193 0
494 -1193 0
447 -1193 0
902 -1200 0
101 -1200 0
883 -1219 0
883 -1222 0
875 -1226 0
101 -1226 0
875 -1232 0
1187 -1232 0
387 -1232 0
417 -1232 0
1232 -1234 0
387 -1234 0
425 -1234 0
427 -1234 0
417 -1234 0
883 -1234 0
241 -1238 0
242 -1238 0
900 -1240 0
-2 6 0
-26 27 0
-26 29 0
-26 31 0
-38 39 0
-38 40 0
-1 55 0
-1 56 0
-61 70 0
-91 100 0
-105 107 0
-105 108 0
-110 115 0
-131 132 0
-153 154 0
-180 181 0
-180 182 0
-180 183 0
-180 184 0
-180 185 0
-180 186 0
-180 187 0
-180 188 0
-180 189 0
-190 191 0
-190 192 0
-196 208 0
-215 216 0
-241 250 0
-281 282 0
-291 292 0
-291 293 0
-308 311 0
-345 352 0
-405 408 0
-418 419 0
-418 420 0
-421 422 0
-424 425 0
-424 427 0
-429 430 0
-432 433 -640 0
-432 435 -640 0
-432 437 -640 0
-432 439 -640 0
-432 441 -640 0
-432 443 -640 0
-432 445 -640 0
-432 447 -640 0
-432 449 -640 0
-432 451 -653 0
-453 454 0
-453 456 0
-453 458 0
-453 460 0
-453 462 0
-453 464 0
-453 466 0
-453 468 0
-453 470 0
-453 472 0
-453 474 0
-453 476 0
-453 479 0
-481 482 -879 0
-481 486 -685 0
-481 488 -685 0
-481 490 -688 0
-481 492 -685 0
-481 494 -685 0
-496 501 -764 0
-496 503 -763 0
-496 505 -697 0
-496 507 -764 0
-496 509 -763 0
-496 511 -697 0
-515 516 0
-515 518 0
-515 520 0
-521 522 0
-521 524 0
-527 529 0
-527 531 0
-417 534 0
-536 537 0
-536 539 0
-544 545 0
-549 550 0
-552 553 0
-555 556 0
-560 561 -750 0
-560 563 -744 0
-565 566 0
-572 573 0
-575 576 0
-578 579 -764 0
-578 581 -763 0
-583 584 -885 0
-588 589 -1079 0
-588 591 -902 0
-588 593 -902 0
-478 601 -602 0
-478 601 -603 0
-478 601 -604 0
619 -761 0
-621 622 0
-618 -623 628 0
-724 725 0
-775 776 0
-841 842 0
-841 843 0
-841 847 0
-854 855 0
-854 856 0
-854 857 0
-883 884 0
-902 903 0
-902 904 0
-902 905 0
-902 906 0
-902 907 0
-217 -902 947 0
-948 949 0
-975 976 0
-1103 1104 0
1107 -1108 0
-1120 1122 0
-1131 1133 0
-1148 1149 0
-1189 1190 0
-1208 1212 0
